24 4
12 18 16 29 33 19 29 56 28 76 98 21 59 89 83 53 73 26 35 79 99 71 69 67
97 17 34 51 98 41 24 38 50 88 24 24 26 58 94 14 95 13 97 15 61 18 95 43
20 32 61 99 55 57 95 61 60 77 26 40 75 74 51 72 29 87 68 88 92 63 77 69
44 92 35 72 67 73 64 16 68 96 62 32 64 78 78 88 67 96 41 26 15 89 12 36
